projected/problems_b25_r0_d7_m100_s666/_DIMACS/b25_d7_r0_s666_058.cnf
p cnf 287 538 25
c p show 1 2 3 4 5 6 7 8 9 10 11 12 13 14 15 16 17 18 19 20 21 22 23 24 25
-26 22 5 0
-27 -8 -21 0
-28 27 26 0
-29 25 0
-29 -20 0
-30 -5 8 0
-31 30 0
-31 29 0
-32 31 28 0
-33 -24 14 0
-34 -5 9 0
-35 34 33 0
-36 -11 -6 0
-37 10 -7 0
-38 37 36 0
-39 38 35 0
-40 39 32 0
-41 -1 0
-41 -25 0
-42 -5 0
-42 25 0
-43 42 0
-43 41 0
-44 5 -25 0
-45 1 25 0
-46 45 0
-46 44 0
-47 46 43 0
-48 -13 16 0
-49 -18 -6 0
-50 49 0
-50 48 0
-51 50 0
-51 47 0
-52 -14 0
-52 15 0
-53 25 0
-53 -22 0
-54 53 0
-54 52 0
-55 -14 7 0
-56 22 0
-56 11 0
-57 56 55 0
-58 57 0
-58 54 0
-59 58 0
-59 51 0
-60 14 -15 0
-61 -25 22 0
-62 61 60 0
-63 14 0
-63 -7 0
-64 -22 -11 0
-65 64 0
-65 63 0
-66 65 62 0
-67 44 45 0
-68 41 42 0
-69 68 0
-69 67 0
-70 13 0
-70 -16 0
-71 18 0
-71 6 0
-72 71 70 0
-73 72 69 0
-74 73 0
-74 66 0
-75 74 59 0
-76 75 40 0
-77 -14 11 0
-78 -21 0
-78 12 0
-79 78 0
-79 77 0
-80 21 0
-80 11 0
-81 -13 0
-81 -9 0
-82 81 0
-82 80 0
-83 82 79 0
-84 4 0
-84 18 0
-85 23 0
-85 -5 0
-86 85 84 0
-87 -16 0
-87 -6 0
-88 7 -19 0
-89 88 87 0
-90 89 86 0
-91 90 0
-91 83 0
-92 7 23 0
-93 -7 -3 0
-94 3 7 0
-95 94 0
-95 93 0
-96 95 92 0
-97 7 0
-97 3 0
-98 -3 0
-98 -7 0
-99 98 97 0
-100 -7 0
-100 -23 0
-101 100 99 0
-102 101 0
-102 96 0
-103 22 0
-103 -9 0
-104 5 0
-104 -13 0
-105 104 0
-105 103 0
-106 105 0
-106 102 0
-107 -13 0
-107 23 0
-108 -23 0
-108 13 0
-109 108 107 0
-110 -12 14 0
-111 110 109 0
-112 18 6 0
-113 6 -6 0
-114 113 112 0
-115 114 0
-115 111 0
-116 115 106 0
-117 13 -23 0
-118 23 -13 0
-119 118 0
-119 117 0
-120 12 0
-120 -14 0
-121 120 0
-121 119 0
-122 -18 0
-122 -6 0
-123 -6 0
-123 6 0
-124 123 0
-124 122 0
-125 124 121 0
-126 99 0
-126 100 0
-127 92 0
-127 95 0
-128 127 126 0
-129 -22 9 0
-130 -5 13 0
-131 130 129 0
-132 131 128 0
-133 132 125 0
-134 133 0
-134 116 0
-135 134 0
-135 91 0
-136 135 76 0
-137 14 0
-137 -11 0
-138 21 -12 0
-139 138 137 0
-140 -21 -11 0
-141 13 9 0
-142 141 140 0
-143 142 0
-143 139 0
-144 -4 -18 0
-145 -23 5 0
-146 145 0
-146 144 0
-147 16 6 0
-148 -7 0
-148 19 0
-149 148 0
-149 147 0
-150 149 0
-150 146 0
-151 150 143 0
-152 125 0
-152 132 0
-153 106 0
-153 115 0
-154 153 152 0
-155 154 151 0
-156 -22 0
-156 -5 0
-157 8 0
-157 21 0
-158 157 0
-158 156 0
-159 -25 20 0
-160 5 0
-160 -8 0
-161 160 159 0
-162 161 0
-162 158 0
-163 24 0
-163 -14 0
-164 5 0
-164 -9 0
-165 164 0
-165 163 0
-166 11 0
-166 6 0
-167 -10 0
-167 7 0
-168 167 0
-168 166 0
-169 168 0
-169 165 0
-170 169 0
-170 162 0
-171 66 73 0
-172 51 58 0
-173 172 0
-173 171 0
-174 173 0
-174 170 0
-175 174 155 0
-176 175 0
-176 136 0
-177 15 0
-177 -3 0
-178 -8 -11 0
-179 178 0
-179 177 0
-180 14 0
-180 -23 0
-181 -4 10 0
-182 181 180 0
-183 182 0
-183 179 0
-184 21 0
-184 -24 0
-185 -6 8 0
-186 185 184 0
-187 24 0
-187 -7 0
-188 -22 0
-188 9 0
-189 188 187 0
-190 189 0
-190 186 0
-191 190 0
-191 183 0
-192 18 0
-192 -1 0
-193 -16 0
-193 -21 0
-194 21 0
-194 16 0
-195 194 193 0
-196 195 0
-196 192 0
-197 -16 -13 0
-198 -17 6 0
-199 198 0
-199 197 0
-200 199 196 0
-201 -21 0
-201 -7 0
-202 17 -11 0
-203 202 0
-203 201 0
-204 -21 0
-204 22 0
-205 10 15 0
-206 205 0
-206 204 0
-207 206 0
-207 203 0
-208 207 0
-208 200 0
-209 208 0
-209 191 0
-210 -17 -22 0
-211 -24 8 0
-212 211 210 0
-213 1 0
-213 -15 0
-214 -6 -13 0
-215 214 213 0
-216 215 212 0
-217 15 -2 0
-218 -14 -22 0
-219 218 0
-219 217 0
-220 -6 -10 0
-221 10 6 0
-222 221 0
-222 220 0
-223 4 0
-223 -1 0
-224 223 0
-224 222 0
-225 224 219 0
-226 225 216 0
-227 -1 -6 0
-228 -10 -3 0
-229 3 10 0
-230 229 0
-230 228 0
-231 230 0
-231 227 0
-232 23 0
-232 -14 0
-233 -7 -22 0
-234 233 232 0
-235 234 231 0
-236 7 -1 0
-237 236 0
-237 138 0
-238 6 0
-238 -4 0
-239 13 17 0
-240 239 0
-240 238 0
-241 -13 0
-241 -17 0
-242 -6 4 0
-243 242 0
-243 241 0
-244 243 240 0
-245 244 0
-245 237 0
-246 245 0
-246 235 0
-247 -7 0
-247 1 0
-248 247 78 0
-249 241 242 0
-250 238 239 0
-251 250 0
-251 249 0
-252 251 248 0
-253 1 0
-253 6 0
-254 10 0
-254 3 0
-255 -3 0
-255 -10 0
-256 255 254 0
-257 256 253 0
-258 -23 14 0
-259 7 0
-259 22 0
-260 259 0
-260 258 0
-261 260 0
-261 257 0
-262 261 0
-262 252 0
-263 262 246 0
-264 263 226 0
-265 252 261 0
-266 235 245 0
-267 266 0
-267 265 0
-268 17 0
-268 22 0
-269 24 0
-269 -8 0
-270 269 0
-270 268 0
-271 -1 15 0
-272 6 0
-272 13 0
-273 272 0
-273 271 0
-274 273 0
-274 270 0
-275 -15 0
-275 2 0
-276 14 0
-276 22 0
-277 276 275 0
-278 6 0
-278 10 0
-279 -10 0
-279 -6 0
-280 279 278 0
-281 -4 1 0
-282 281 280 0
-283 282 0
-283 277 0
-284 283 0
-284 274 0
-285 284 267 0
-286 285 0
-286 264 0
-287 286 209 0
287 176 0
-137 -77 0
-77 -137 0
-138 -78 0
-78 -138 0
-79 -139 0
-139 -79 0
-140 -80 0
-141 -81 0
-142 -82 0
-143 -83 0
-84 -144 0
-144 -84 0
-85 -145 0
-145 -85 0
-146 -86 0
-86 -146 0
-147 -87 0
-148 -88 0
-149 -89 0
-89 -149 0
-90 -150 0
-150 -90 0
-151 -91 0
-91 -151 0
-119 -109 0
-109 -119 0
-120 -110 0
-110 -120 0
-111 -121 0
-122 -112 0
-112 -122 0
-113 -123 0
-114 -124 0
-115 -125 0
-125 -115 0
-95 -99 0
-99 -95 0
-92 -100 0
-102 -128 0
-128 -102 0
-129 -103 0
-103 -129 0
-104 -130 0
-105 -131 0
-131 -105 0
-132 -106 0
-106 -132 0
-134 -154 0
-135 -155 0
-155 -135 0
-156 -26 0
-26 -156 0
-157 -27 0
-27 -157 0
-28 -158 0
-159 -29 0
-29 -159 0
-160 -30 0
-30 -160 0
-31 -161 0
-32 -162 0
-162 -32 0
-163 -33 0
-34 -164 0
-164 -34 0
-165 -35 0
-35 -165 0
-166 -36 0
-36 -166 0
-167 -37 0
-37 -167 0
-38 -168 0
-39 -169 0
-169 -39 0
-170 -40 0
-52 -60 0
-60 -52 0
-61 -53 0
-62 -54 0
-54 -62 0
-63 -55 0
-55 -63 0
-64 -56 0
-56 -64 0
-57 -65 0
-58 -66 0
-44 -42 0
-42 -44 0
-45 -41 0
-69 -47 0
-70 -48 0
-71 -49 0
-72 -50 0
-73 -51 0
-173 -75 0
-174 -76 0
-76 -174 0
-247 -236 0
-236 -247 0
-237 -248 0
-248 -237 0
-239 -241 0
-238 -242 0
-242 -238 0
-251 -244 0
-252 -245 0
-245 -252 0
-227 -253 0
-230 -256 0
-231 -257 0
-232 -258 0
-258 -232 0
-233 -259 0
-259 -233 0
-260 -234 0
-234 -260 0
-235 -261 0
-261 -235 0
-267 -263 0
-268 -210 0
-269 -211 0
-270 -212 0
-212 -270 0
-271 -213 0
-213 -271 0
-214 -272 0
-215 -273 0
-216 -274 0
-274 -216 0
-275 -217 0
-217 -275 0
-218 -276 0
-219 -277 0
-277 -219 0
-222 -280 0
-280 -222 0
-281 -223 0
-282 -224 0
-283 -225 0
-284 -226 0
-226 -284 0
