projected/problems_b25_r0_d7_m100_s666/b25_d7_r0_s666_058.smt2
(set-logic QF_UF)
(declare-fun A0 () Bool)
(declare-fun A1 () Bool)
(declare-fun A2 () Bool)
(declare-fun A3 () Bool)
(declare-fun A4 () Bool)
(declare-fun A5 () Bool)
(declare-fun A6 () Bool)
(declare-fun A7 () Bool)
(declare-fun A8 () Bool)
(declare-fun A9 () Bool)
(declare-fun A10 () Bool)
(declare-fun A11 () Bool)
(declare-fun A12 () Bool)
(declare-fun A13 () Bool)
(declare-fun A14 () Bool)
(declare-fun A15 () Bool)
(declare-fun A16 () Bool)
(declare-fun A17 () Bool)
(declare-fun A18 () Bool)
(declare-fun A19 () Bool)
(declare-fun A20 () Bool)
(declare-fun A21 () Bool)
(declare-fun A22 () Bool)
(declare-fun A23 () Bool)
(declare-fun A24 () Bool)
(assert (let ((.def_0 (not A10))) (let ((.def_1 (and A13 .def_0))) (let ((.def_2 (not .def_1))) (let ((.def_3 (not A11))) (let ((.def_4 (or A20 .def_3))) (let ((.def_5 (not .def_4))) (let ((.def_6 (and .def_5 .def_2))) (let ((.def_7 (not .def_6))) (let ((.def_8 (not A20))) (let ((.def_9 (or .def_8 .def_0))) (let ((.def_10 (or A12 A8))) (let ((.def_11 (or .def_10 .def_9))) (let ((.def_12 (and .def_11 .def_7))) (let ((.def_13 (and A3 A17))) (let ((.def_14 (not .def_13))) (let ((.def_15 (not A4))) (let ((.def_16 (and A22 .def_15))) (let ((.def_17 (not .def_16))) (let ((.def_18 (and .def_17 .def_14))) (let ((.def_19 (not .def_18))) (let ((.def_20 (or A15 A5))) (let ((.def_21 (not A6))) (let ((.def_22 (and .def_21 A18))) (let ((.def_23 (and .def_22 .def_20))) (let ((.def_24 (not .def_23))) (let ((.def_25 (or .def_24 .def_19))) (let ((.def_26 (not .def_25))) (let ((.def_27 (or .def_26 .def_12))) (let ((.def_28 (not .def_27))) (let ((.def_29 (not A12))) (let ((.def_30 (not A22))) (let ((.def_31 (= .def_30 .def_29))) (let ((.def_32 (not .def_31))) (let ((.def_33 (not A13))) (let ((.def_34 (and A11 .def_33))) (let ((.def_35 (not .def_34))) (let ((.def_36 (or .def_35 .def_32))) (let ((.def_37 (not A5))) (let ((.def_38 (not A17))) (let ((.def_39 (and .def_38 .def_37))) (let ((.def_40 (not .def_39))) (let ((.def_41 (or A5 .def_37))) (let ((.def_42 (or .def_41 .def_40))) (let ((.def_43 (and .def_42 .def_36))) (let ((.def_44 (not .def_43))) (let ((.def_45 (not A2))) (let ((.def_46 (= .def_45 A6))) (let ((.def_47 (not .def_46))) (let ((.def_48 (or A6 A22))) (let ((.def_49 (= .def_48 .def_47))) (let ((.def_50 (not .def_49))) (let ((.def_51 (not A21))) (let ((.def_52 (or .def_51 A8))) (let ((.def_53 (not .def_52))) (let ((.def_54 (and A4 .def_29))) (let ((.def_55 (and .def_54 .def_53))) (let ((.def_56 (not .def_55))) (let ((.def_57 (or .def_56 .def_50))) (let ((.def_58 (not .def_57))) (let ((.def_59 (= .def_58 .def_44))) (let ((.def_60 (and .def_59 .def_28))) (let ((.def_61 (not .def_60))) (let ((.def_62 (and .def_51 .def_15))) (let ((.def_63 (not .def_62))) (let ((.def_64 (and A7 A20))) (let ((.def_65 (not .def_64))) (let ((.def_66 (or .def_65 .def_63))) (let ((.def_67 (not A24))) (let ((.def_68 (or .def_67 A19))) (let ((.def_69 (not .def_68))) (let ((.def_70 (not A7))) (let ((.def_71 (and A4 .def_70))) (let ((.def_72 (not .def_71))) (let ((.def_73 (and .def_72 .def_69))) (let ((.def_74 (or .def_73 .def_66))) (let ((.def_75 (not .def_74))) (let ((.def_76 (and A23 .def_33))) (let ((.def_77 (or .def_15 A8))) (let ((.def_78 (not .def_77))) (let ((.def_79 (and .def_78 .def_76))) (let ((.def_80 (not .def_79))) (let ((.def_81 (and A10 A5))) (let ((.def_82 (not .def_81))) (let ((.def_83 (not A9))) (let ((.def_84 (and .def_83 A6))) (let ((.def_85 (not .def_84))) (let ((.def_86 (or .def_85 .def_82))) (let ((.def_87 (or .def_86 .def_80))) (let ((.def_88 (not .def_87))) (let ((.def_89 (and .def_88 .def_75))) (let ((.def_90 (and .def_33 A14))) (let ((.def_91 (not .def_90))) (let ((.def_92 (or .def_67 A21))) (let ((.def_93 (or .def_92 .def_91))) (let ((.def_94 (not .def_93))) (let ((.def_95 (and A13 .def_21))) (let ((.def_96 (not .def_95))) (let ((.def_97 (or .def_51 .def_0))) (let ((.def_98 (not .def_97))) (let ((.def_99 (or .def_98 .def_96))) (let ((.def_100 (and .def_99 .def_94))) (let ((.def_101 (or A4 .def_67))) (let ((.def_102 (not .def_101))) (let ((.def_103 (or A0 A24))) (let ((.def_104 (= .def_103 .def_102))) (let ((.def_105 (not A15))) (let ((.def_106 (and A12 .def_105))) (let ((.def_107 (and A17 A5))) (let ((.def_108 (or .def_107 .def_106))) (let ((.def_109 (or .def_108 .def_104))) (let ((.def_110 (= .def_109 .def_100))) (let ((.def_111 (and .def_110 .def_89))) (let ((.def_112 (not .def_111))) (let ((.def_113 (= .def_112 .def_61))) (let ((.def_114 (not A14))) (let ((.def_115 (or .def_114 A2))) (let ((.def_116 (not .def_115))) (let ((.def_117 (or .def_70 .def_0))) (let ((.def_118 (and .def_117 .def_116))) (let ((.def_119 (not .def_118))) (let ((.def_120 (and A13 .def_30))) (let ((.def_121 (not .def_120))) (let ((.def_122 (not A3))) (let ((.def_123 (or .def_122 A9))) (let ((.def_124 (not .def_123))) (let ((.def_125 (and .def_124 .def_121))) (let ((.def_126 (or .def_125 .def_119))) (let ((.def_127 (not .def_126))) (let ((.def_128 (not A23))) (let ((.def_129 (and A20 .def_128))) (let ((.def_130 (or .def_37 A7))) (let ((.def_131 (or .def_130 .def_129))) (let ((.def_132 (and A23 .def_21))) (let ((.def_133 (and .def_51 A8))) (let ((.def_134 (or .def_133 .def_132))) (let ((.def_135 (and .def_134 .def_131))) (let ((.def_136 (and .def_135 .def_127))) (let ((.def_137 (or .def_38 A0))) (let ((.def_138 (not .def_137))) (let ((.def_139 (= A20 .def_105))) (let ((.def_140 (not .def_139))) (let ((.def_141 (and .def_140 .def_138))) (let ((.def_142 (and A15 A12))) (let ((.def_143 (not A16))) (let ((.def_144 (or .def_143 A5))) (let ((.def_145 (not .def_144))) (let ((.def_146 (or .def_145 .def_142))) (let ((.def_147 (not .def_146))) (let ((.def_148 (or .def_147 .def_141))) (let ((.def_149 (not .def_148))) (let ((.def_150 (and .def_8 .def_21))) (let ((.def_151 (not .def_150))) (let ((.def_152 (or A16 .def_0))) (let ((.def_153 (not .def_152))) (let ((.def_154 (or .def_153 .def_151))) (let ((.def_155 (not .def_154))) (let ((.def_156 (and .def_8 A21))) (let ((.def_157 (not .def_156))) (let ((.def_158 (and .def_83 .def_114))) (let ((.def_159 (or .def_158 .def_157))) (let ((.def_160 (not .def_159))) (let ((.def_161 (and .def_160 .def_155))) (let ((.def_162 (not .def_161))) (let ((.def_163 (or .def_162 .def_149))) (let ((.def_164 (not .def_163))) (let ((.def_165 (and .def_164 .def_136))) (let ((.def_166 (and .def_21 A0))) (let ((.def_167 (not .def_166))) (let ((.def_168 (and .def_167 .def_4))) (let ((.def_169 (not .def_168))) (let ((.def_170 (or A12 A16))) (let ((.def_171 (and A5 .def_122))) (let ((.def_172 (not .def_171))) (let ((.def_173 (= .def_172 .def_170))) (let ((.def_174 (or .def_173 .def_169))) (let ((.def_175 (not .def_174))) (let ((.def_176 (not A0))) (let ((.def_177 (or .def_176 .def_37))) (let ((.def_178 (= .def_45 A9))) (let ((.def_179 (and .def_178 .def_177))) (let ((.def_180 (and A22 .def_33))) (let ((.def_181 (not .def_180))) (let ((.def_182 (or .def_21 .def_51))) (let ((.def_183 (not .def_182))) (let ((.def_184 (and .def_183 .def_181))) (let ((.def_185 (not .def_184))) (let ((.def_186 (or .def_185 .def_179))) (let ((.def_187 (not .def_186))) (let ((.def_188 (= .def_187 .def_175))) (let ((.def_189 (and A16 A21))) (let ((.def_190 (and A23 .def_70))) (let ((.def_191 (and .def_190 .def_189))) (let ((.def_192 (not .def_191))) (let ((.def_193 (or .def_176 A14))) (let ((.def_194 (not .def_193))) (let ((.def_195 (or .def_37 .def_29))) (let ((.def_196 (or .def_195 .def_194))) (let ((.def_197 (or .def_196 .def_192))) (let ((.def_198 (not .def_197))) (let ((.def_199 (and .def_114 A1))) (let ((.def_200 (not .def_199))) (let ((.def_201 (or .def_33 .def_51))) (let ((.def_202 (and .def_201 .def_200))) (let ((.def_203 (not .def_202))) (let ((.def_204 (= .def_83 A5))) (let ((.def_205 (not .def_204))) (let ((.def_206 (or .def_122 A0))) (let ((.def_207 (or .def_206 .def_205))) (let ((.def_208 (and .def_207 .def_203))) (let ((.def_209 (and .def_208 .def_198))) (let ((.def_210 (not .def_209))) (let ((.def_211 (= .def_210 .def_188))) (let ((.def_212 (or .def_211 .def_165))) (let ((.def_213 (or .def_212 .def_113))) .def_213)))))))))))))))))))))))))))))))))))))))))))))))))))))))))))))))))))))))))))))))))))))))))))))))))))))))))))))))))))))))))))))))))))))))))))))))))))))))))))))))))))))))))))))))))))))))))))))))))))))))))))))))))))))))
(check-sat)
